p tw 168 2661 8 
1 9 
1 11 
1 141 
1 143 
2 7 
2 10 
2 12 
2 142 
2 144 
3 8 
3 10 
3 133 
4 7 
4 9 
4 134 
5 9 
5 10 
5 135 
6 7 
6 8 
6 136 
11 18 
11 19 
11 143 
12 17 
12 20 
12 144 
13 18 
13 20 
13 23 
14 17 
14 19 
14 24 
15 19 
15 20 
15 25 
16 17 
16 18 
16 26 
21 28 
21 29 
21 31 
21 145 
21 147 
22 27 
22 30 
22 32 
22 146 
22 148 
23 28 
23 30 
24 27 
24 29 
25 29 
25 30 
26 27 
26 28 
31 38 
31 39 
31 147 
32 37 
32 40 
32 148 
33 38 
33 40 
33 43 
34 37 
34 39 
34 44 
35 39 
35 40 
35 45 
36 37 
36 38 
36 46 
41 48 
41 49 
41 51 
41 149 
41 151 
42 47 
42 50 
42 52 
42 150 
42 152 
43 48 
43 50 
44 47 
44 49 
45 49 
45 50 
46 47 
46 48 
51 58 
51 59 
51 151 
52 57 
52 60 
52 152 
53 58 
53 60 
53 63 
54 57 
54 59 
54 64 
55 59 
55 60 
55 65 
56 57 
56 58 
56 66 
61 68 
61 69 
61 71 
61 153 
61 155 
62 67 
62 70 
62 72 
62 154 
62 156 
63 68 
63 70 
64 67 
64 69 
65 69 
65 70 
66 67 
66 68 
71 78 
71 79 
71 155 
72 77 
72 80 
72 156 
73 78 
73 80 
73 83 
74 77 
74 79 
74 84 
75 79 
75 80 
75 85 
76 77 
76 78 
76 86 
81 88 
81 89 
81 91 
81 157 
81 159 
82 87 
82 90 
82 92 
82 158 
82 160 
83 88 
83 90 
84 87 
84 89 
85 89 
85 90 
86 87 
86 88 
91 98 
91 99 
91 159 
92 97 
92 100 
92 160 
93 98 
93 100 
93 103 
94 97 
94 99 
94 104 
95 99 
95 100 
95 105 
96 97 
96 98 
96 106 
101 108 
101 109 
101 111 
101 161 
101 163 
102 107 
102 110 
102 112 
102 162 
102 164 
103 108 
103 110 
104 107 
104 109 
105 109 
105 110 
106 107 
106 108 
111 118 
111 119 
111 163 
112 117 
112 120 
112 164 
113 118 
113 120 
113 123 
114 117 
114 119 
114 124 
115 119 
115 120 
115 125 
116 117 
116 118 
116 126 
121 128 
121 129 
121 131 
121 165 
121 167 
122 127 
122 130 
122 132 
122 166 
122 168 
123 128 
123 130 
124 127 
124 129 
125 129 
125 130 
126 127 
126 128 
131 138 
131 139 
131 167 
132 137 
132 140 
132 168 
133 138 
133 140 
134 137 
134 139 
135 139 
135 140 
136 137 
136 138 
141 142 
143 144 
145 146 
147 148 
149 150 
151 152 
153 154 
155 156 
157 158 
159 160 
161 162 
163 164 
165 166 
167 168 
